g3 1 1 0	# problem md2m
 2 0 14 0 0 	# vars, constraints, objectives, ranges, eqns
 0 13 0 0 0 0	# nonlinear constrs, objs; ccons: lin, nonlin, nd, nzlb
 0 0	# network constraints: nonlinear, linear
 0 2 0 	# nonlinear vars in constraints, objectives, both
 0 0 0 1	# linear network variables; functions; arith, flags
 0 0 0 0 0 	# discrete variables: binary, integer, nonlinear (b,c,o)
 0 20 	# nonzeros in Jacobian, obj. gradient
 0 0	# max name lengths: constraints, variables
 0 0 0 0 0	# common exprs: b,c,o,c1,o1
O0 0
o0
o54
5
o43
v0
o2
n3
o43
v1
o2
n28.59
o43
o0
o16
o44
o2
n-0.033366700033366704
v1
n1
o2
n56.42
o43
o0
o16
o44
o2
n-1.9686353019686353
v1
n1
o2
n50.12
o43
o0
o16
o44
o2
n-7.073740407073741
v1
n1
n131.089725
O1 0
o5
v0
n-1.0
O2 0
o16
o5
v0
n-2.0
O3 0
o0
o54
4
o2
n3.0
o5
v1
n-1.0
o2
o2
n354.5358692025359
o5
o0
o16
o44
o2
n-7.073740407073741
v1
n1.0
n-1.0
o44
o2
n-7.073740407073741
v1
o2
o2
n0.9539539539539541
o5
o0
o16
o44
o2
n-0.033366700033366704
v1
n1.0
n-1.0
o44
o2
n-0.033366700033366704
v1
o2
o2
n111.07040373707041
o5
o0
o16
o44
o2
n-1.9686353019686353
v1
n1.0
n-1.0
o44
o2
n-1.9686353019686353
v1
n-26.3839138
O4 0
o54
7
o2
n-3.0
o5
v1
n-2.0
o2
o2
n-0.0318302954272257
o5
o0
o16
o44
o2
n-0.033366700033366704
v1
n1.0
n-1.0
o44
o2
n-0.033366700033366704
v1
o2
o2
n-0.0318302954272257
o5
o0
o16
o44
o2
n-0.033366700033366704
v1
n1.0
n-2.0
o44
o2
n-0.06673340006673341
v1
o2
o2
n-2507.8947037349885
o5
o0
o16
o44
o2
n-7.073740407073741
v1
n1.0
n-1.0
o44
o2
n-7.073740407073741
v1
o2
o2
n-2507.8947037349885
o5
o0
o16
o44
o2
n-7.073740407073741
v1
n1.0
n-2.0
o44
o2
n-14.147480814147482
v1
o2
o2
n-218.65711780070583
o5
o0
o16
o44
o2
n-1.9686353019686353
v1
n1.0
n-1.0
o44
o2
n-1.9686353019686353
v1
o2
o2
n-218.65711780070583
o5
o0
o16
o44
o2
n-1.9686353019686353
v1
n1.0
n-2.0
o44
o2
n-3.9372706039372707
v1
O5 0
o54
15
o2
o2
n0.01458333
o5
v0
n4
v1
o2
o2
n3.227554
v0
o5
v1
n0.319
o2
o2
n-3.503565
v0
o5
v1
n0.829
o2
o2
n-2.017391
o5
v0
n2
o5
v1
n0.78
o2
o2
n0.8606129
o5
v0
n3
o5
v1
n0.687
o2
o2
o2
n-2.196015
v0
o5
v1
n1.29
o44
o16
o5
v0
n2
o2
o2
o2
n-0.9289014
o5
v0
n3
o5
v1
n3.91
o44
o16
o5
v0
n2
o2
o2
o2
n2.02774
o5
v0
n2
o5
v1
n0.77
o44
o2
n-1.0
v0
o2
o2
o2
n-0.9168439
o5
v0
n2
o5
v1
n3.055
o44
o16
o5
v0
n2
o2
o2
o2
n-0.06383507
o5
v0
n7
o5
v1
n1.013
o44
o2
n-1.0
v0
o2
o2
o2
n2.674255
v0
o5
v1
n1.07
o44
o0
o2
n-0.982
o5
o0
v0
n-0.874
n2
o2
n-0.7323
o5
o0
v1
n-1.042
n2
o2
o2
o2
n0.04662529
v0
o5
v1
n1.89
o44
o0
o2
n-2.7
o5
o0
v0
n-1.43
n2
o2
n-0.543
o5
o0
v1
n-1.1
n2
o2
o2
o2
n-0.3835361
o5
v0
n3
o5
v1
n1.133
o44
o0
o2
n-1.347
o5
o0
v0
n-0.855
n2
o2
n-1.26
o5
o0
v1
n-1.146
n2
o2
o2
o2
n-0.4273462
o5
v0
n2
o5
v1
n0.826
o44
o0
o2
n-0.864
o5
o0
v0
n-0.815
n2
o2
n-0.878
o5
o0
v1
n-1.085
n2
o2
o2
o2
n-1.148009
o5
v0
n2
o5
v1
n0.83
o44
o0
o2
n-1.149
o5
o0
v0
n-0.491
n2
o2
n-2.22
o5
o0
v1
n-0.6844
n2
O6 0
o54
25
o2
n3.227554
o5
v1
n0.319
o2
n-3.503565
o5
v1
n0.829
o2
o2
n0.04662529
o5
v1
n1.89
o44
o0
o2
n-2.7
o5
o0
v0
n-1.43
n2.0
o2
n-0.543
o5
o0
v1
n-1.1
n2.0
o2
o2
n2.5818387
o5
v0
n2.0
o5
v1
n0.687
o2
o2
n2.674255
o5
v1
n1.07
o44
o0
o2
n-0.7323
o5
o0
v1
n-1.042
n2.0
o2
n-0.982
o5
o0
v0
n-0.874
n2.0
o2
o2
n0.05833332
v1
o5
v0
n3.0
o2
o2
n-4.034782
v0
o5
v1
n0.78
o2
o2
n-2.196015
o5
v1
n1.29
o44
o16
o5
v0
n2.0
o2
o2
o2
n0.06383507
o5
v0
n7.0
o5
v1
n1.013
o44
o2
n-1.0
v0
o2
o2
o2
n1.8578028
o5
v0
n4.0
o5
v1
n3.91
o44
o16
o5
v0
n2.0
o2
o2
o2
n4.39203
o5
v0
n2.0
o5
v1
n1.29
o44
o16
o5
v0
n2.0
o2
o2
o2
n4.05548
v0
o5
v1
n0.77
o44
o2
n-1.0
v0
o2
o2
o2
n1.8336878
o5
v0
n3.0
o5
v1
n3.055
o44
o16
o5
v0
n2.0
o2
o2
o2
n-2.296018
v0
o5
v1
n0.83
o44
o0
o2
n-1.149
o5
o0
v0
n-0.491
n2.0
o2
n-2.22
o5
o0
v1
n-0.6844
n2.0
o2
o2
o2
n-1.1506083
o5
v0
n2.0
o5
v1
n1.133
o44
o0
o2
n-1.347
o5
o0
v0
n-0.855
n2.0
o2
n-1.26
o5
o0
v1
n-1.146
n2.0
o2
o2
o2
n-2.7867042
o5
v0
n2.0
o5
v1
n3.91
o44
o16
o5
v0
n2.0
o2
o2
o2
n-0.8546924
v0
o5
v1
n0.826
o44
o0
o2
n-0.864
o5
o0
v0
n-0.815
n2.0
o2
n-0.878
o5
o0
v1
n-1.085
n2.0
o2
o2
o2
n-0.44684548999999996
o5
v0
n6.0
o5
v1
n1.013
o44
o2
n-1.0
v0
o2
o2
o2
n-2.02774
o5
v0
n2.0
o5
v1
n0.77
o44
o2
n-1.0
v0
o2
o2
o2
n-1.8336878
v0
o5
v1
n3.055
o44
o16
o5
v0
n2.0
o2
o2
o2
o2
n0.04662529
v0
o5
v1
n1.89
o0
o2
n-5.4
v0
n7.722
o44
o0
o2
n-2.7
o5
o0
v0
n-1.43
n2.0
o2
n-0.543
o5
o0
v1
n-1.1
n2.0
o2
o2
o2
o2
n2.674255
v0
o5
v1
n1.07
o0
o2
n-1.964
v0
n1.716536
o44
o0
o2
n-0.7323
o5
o0
v1
n-1.042
n2.0
o2
n-0.982
o5
o0
v0
n-0.874
n2.0
o2
o2
o2
o2
n-1.148009
o5
v0
n2.0
o5
v1
n0.83
o0
o2
n-2.298
v0
n1.128318
o44
o0
o2
n-1.149
o5
o0
v0
n-0.491
n2.0
o2
n-2.22
o5
o0
v1
n-0.6844
n2.0
o2
o2
o2
o2
n-0.4273462
o5
v0
n2.0
o5
v1
n0.826
o0
o2
n-1.728
v0
n1.4083199999999998
o44
o0
o2
n-0.864
o5
o0
v0
n-0.815
n2.0
o2
n-0.878
o5
o0
v1
n-1.085
n2.0
o2
o2
o2
o2
n-0.3835361
o5
v0
n3.0
o5
v1
n1.133
o0
o2
n-2.694
v0
n2.3033699999999997
o44
o0
o2
n-1.347
o5
o0
v0
n-0.855
n2.0
o2
n-1.26
o5
o0
v1
n-1.146
n2.0
O7 0
o54
41
o2
n-4.034782
o5
v1
n0.78
o2
o2
n0.17499996
v1
o5
v0
n2.0
o2
o2
n4.05548
o5
v1
n0.77
o44
o2
n-1.0
v0
o2
o2
n5.1636774
o5
v1
n0.687
v0
o2
o2
n-2.296018
o5
v1
n0.83
o44
o0
o2
n-1.149
o5
o0
v0
n-0.491
n2.0
o2
n-2.22
o5
o0
v1
n-0.6844
n2.0
o2
o2
n-0.8546924
o5
v1
n0.826
o44
o0
o2
n-0.864
o5
o0
v0
n-0.815
n2.0
o2
n-0.878
o5
o0
v1
n-1.085
n2.0
o2
o2
n-1.8336878
o5
v1
n3.055
o44
o16
o5
v0
n2.0
o2
o2
o2
n0.7384542336
o5
v1
n0.826
o5
v0
n2.0
o44
o0
o2
n-0.864
o5
o0
v0
n-0.815
n2.0
o2
n-0.878
o5
o0
v1
n-1.085
n2.0
o2
o2
o2
n0.04662529
o5
v1
n1.89
o0
o2
n-5.4
v0
n7.722
o44
o0
o2
n-2.7
o5
o0
v0
n-1.43
n2.0
o2
n-0.543
o5
o0
v1
n-1.1
n2.0
o2
o2
o2
n0.8936909799999999
o5
v1
n1.013
o5
v0
n6.0
o44
o2
n-1.0
v0
o2
o2
o2
n2.02774
o5
v1
n0.77
o5
v0
n2.0
o44
o2
n-1.0
v0
o2
o2
o2
n1.0332462534
o5
v1
n1.133
o5
v0
n3.0
o44
o0
o2
n-1.347
o5
o0
v0
n-0.855
n2.0
o2
n-1.26
o5
o0
v1
n-1.146
n2.0
o2
o2
o2
n9.168439000000001
o5
v1
n3.055
o5
v0
n2.0
o44
o16
o5
v0
n2.0
o2
o2
o2
n2.6381246820000004
o5
v1
n0.83
o5
v0
n2.0
o44
o0
o2
n-1.149
o5
o0
v0
n-0.491
n2.0
o2
n-2.22
o5
o0
v1
n-0.6844
n2.0
o2
o2
o2
n2.674255
o5
v1
n1.07
o0
o2
n-1.964
v0
n1.716536
o44
o0
o2
n-0.7323
o5
o0
v1
n-1.042
n2.0
o2
n-0.982
o5
o0
v0
n-0.874
n2.0
o2
o2
o2
n13.0046196
o5
v1
n3.91
o5
v0
n3.0
o44
o16
o5
v0
n2.0
o2
o2
o2
n13.17609
o5
v1
n1.29
v0
o44
o16
o5
v0
n2.0
o2
o2
o2
n-2.68107294
o5
v1
n1.013
o5
v0
n5.0
o44
o2
n-1.0
v0
o2
o2
o2
n-0.06383507
o5
v1
n1.013
o5
v0
n7.0
o44
o2
n-1.0
v0
o2
o2
o2
n-2.3012166
o5
v1
n1.133
v0
o44
o0
o2
n-1.347
o5
o0
v0
n-0.855
n2.0
o2
n-1.26
o5
o0
v1
n-1.146
n2.0
o2
o2
o2
n-5.25223682
v0
o5
v1
n1.07
o44
o0
o2
n-0.7323
o5
o0
v1
n-1.042
n2.0
o2
n-0.982
o5
o0
v0
n-0.874
n2.0
o2
o2
o2
n-5.25223682
o5
v1
n1.07
o0
v0
n-0.874
o44
o0
o2
n-0.7323
o5
o0
v1
n-1.042
n2.0
o2
n-0.982
o5
o0
v0
n-0.874
n2.0
o2
o2
o2
n-3.7156056
o5
v1
n3.91
o5
v0
n5.0
o44
o16
o5
v0
n2.0
o2
o2
o2
n-8.78406
o5
v1
n1.29
o5
v0
n3.0
o44
o16
o5
v0
n2.0
o2
o2
o2
n-5.5734084
o5
v1
n3.91
v0
o44
o16
o5
v0
n2.0
o2
o2
o2
n-0.25177656600000003
v0
o5
v1
n1.89
o44
o0
o2
n-2.7
o5
o0
v0
n-1.43
n2.0
o2
n-0.543
o5
o0
v1
n-1.1
n2.0
o2
o2
o2
n-0.25177656600000003
o5
v1
n1.89
o0
v0
n-1.43
o44
o0
o2
n-2.7
o5
o0
v0
n-1.43
n2.0
o2
n-0.543
o5
o0
v1
n-1.1
n2.0
o2
o2
o2
n-4.05548
v0
o5
v1
n0.77
o44
o2
n-1.0
v0
o2
o2
o2
n-4.05548
o5
v1
n0.77
v0
o44
o2
n-1.0
v0
o2
o2
o2
n-3.6673756
o5
v1
n3.055
o5
v0
n4.0
o44
o16
o5
v0
n2.0
o2
o2
o2
o2
n1.4769084672
v0
o5
v1
n0.826
o0
v0
n-0.815
o44
o0
o2
n-0.864
o5
o0
v0
n-0.815
n2.0
o2
n-0.878
o5
o0
v1
n-1.085
n2.0
o2
o2
o2
o2
n3.0997387602
o5
v1
n1.133
o5
v0
n2.0
o0
v0
n-0.855
o44
o0
o2
n-1.347
o5
o0
v0
n-0.855
n2.0
o2
n-1.26
o5
o0
v1
n-1.146
n2.0
o2
o2
o2
o2
n5.276249364000001
v0
o5
v1
n0.83
o0
v0
n-0.491
o44
o0
o2
n-1.149
o5
o0
v0
n-0.491
n2.0
o2
n-2.22
o5
o0
v1
n-0.6844
n2.0
o2
o2
o2
o2
n-2.296018
o5
v1
n0.83
v0
o0
o2
n-2.298
v0
n1.128318
o44
o0
o2
n-1.149
o5
o0
v0
n-0.491
n2.0
o2
n-2.22
o5
o0
v1
n-0.6844
n2.0
o2
o2
o2
o2
n-1.1506083
o5
v1
n1.133
o5
v0
n2.0
o0
o2
n-2.694
v0
n2.3033699999999997
o44
o0
o2
n-1.347
o5
o0
v0
n-0.855
n2.0
o2
n-1.26
o5
o0
v1
n-1.146
n2.0
o2
o2
o2
o2
n-0.8546924
o5
v1
n0.826
v0
o0
o2
n-1.728
v0
n1.4083199999999998
o44
o0
o2
n-0.864
o5
o0
v0
n-0.815
n2.0
o2
n-0.878
o5
o0
v1
n-1.085
n2.0
o2
o2
o2
o2
o2
n0.7384542336
o5
v1
n0.826
o5
v0
n2.0
o0
v0
n-0.815
o0
o2
n-1.728
v0
n1.4083199999999998
o44
o0
o2
n-0.864
o5
o0
v0
n-0.815
n2.0
o2
n-0.878
o5
o0
v1
n-1.085
n2.0
o2
o2
o2
o2
o2
n1.0332462534
o5
v1
n1.133
o5
v0
n3.0
o0
v0
n-0.855
o0
o2
n-2.694
v0
n2.3033699999999997
o44
o0
o2
n-1.347
o5
o0
v0
n-0.855
n2.0
o2
n-1.26
o5
o0
v1
n-1.146
n2.0
o2
o2
o2
o2
o2
n2.6381246820000004
o5
v1
n0.83
o5
v0
n2.0
o0
v0
n-0.491
o0
o2
n-2.298
v0
n1.128318
o44
o0
o2
n-1.149
o5
o0
v0
n-0.491
n2.0
o2
n-2.22
o5
o0
v1
n-0.6844
n2.0
o2
o2
o2
o2
o2
n-5.25223682
v0
o5
v1
n1.07
o0
v0
n-0.874
o0
o2
n-1.964
v0
n1.716536
o44
o0
o2
n-0.7323
o5
o0
v1
n-1.042
n2.0
o2
n-0.982
o5
o0
v0
n-0.874
n2.0
o2
o2
o2
o2
o2
n-0.25177656600000003
v0
o5
v1
n1.89
o0
v0
n-1.43
o0
o2
n-5.4
v0
n7.722
o44
o0
o2
n-2.7
o5
o0
v0
n-1.43
n2.0
o2
n-0.543
o5
o0
v1
n-1.1
n2.0
O8 0
o54
20
o2
n0.01458333
o5
v0
n4.0
o2
o2
n1.029589726
v0
o5
v1
n-0.681
o2
o2
n0.5912410623000001
o5
v0
n3.0
o5
v1
n-0.31299999999999994
o2
o2
n-1.57356498
o5
v0
n2.0
o5
v1
n-0.21999999999999997
o2
o2
n-2.904455385
v0
o5
v1
n-0.17100000000000004
o2
o2
o2
n2.86145285
v0
o5
v1
n0.07000000000000006
o44
o0
o2
n-0.7323
o5
o0
v1
n-1.042
n2.0
o2
n-0.982
o5
o0
v0
n-0.874
n2.0
o2
o2
o2
n0.0881217981
v0
o5
v1
n0.8899999999999999
o44
o0
o2
n-2.7
o5
o0
v0
n-1.43
n2.0
o2
n-0.543
o5
o0
v1
n-1.1
n2.0
o2
o2
o2
n1.5613598000000002
o5
v0
n2.0
o5
v1
n-0.22999999999999998
o44
o2
n-1.0
v0
o2
o2
o2
n-0.95284747
o5
v0
n2.0
o5
v1
n-0.17000000000000004
o44
o0
o2
n-1.149
o5
o0
v0
n-0.491
n2.0
o2
n-2.22
o5
o0
v1
n-0.6844
n2.0
o2
o2
o2
n-0.4345464013
o5
v0
n3.0
o5
v1
n0.133
o44
o0
o2
n-1.347
o5
o0
v0
n-0.855
n2.0
o2
n-1.26
o5
o0
v1
n-1.146
n2.0
o2
o2
o2
n-2.8009581145
o5
v0
n2.0
o5
v1
n2.055
o44
o16
o5
v0
n2.0
o2
o2
o2
n-0.3529879612
o5
v0
n2.0
o5
v1
n-0.17400000000000004
o44
o0
o2
n-0.864
o5
o0
v0
n-0.815
n2.0
o2
n-0.878
o5
o0
v1
n-1.085
n2.0
o2
o2
o2
n-0.06466492590999999
o5
v0
n7.0
o5
v1
n0.0129999999999999
o44
o2
n-1.0
v0
o2
o2
o2
n-2.83285935
v0
o5
v1
n0.29000000000000004
o44
o16
o5
v0
n2.0
o2
o2
o2
n-3.632004474
o5
v0
n3.0
o5
v1
n2.91
o44
o16
o5
v0
n2.0
o2
o2
o2
o2
n0.04662529
v0
o5
v1
n1.89
o0
o2
n-1.086
v1
n1.1946
o44
o0
o2
n-2.7
o5
o0
v0
n-1.43
n2.0
o2
n-0.543
o5
o0
v1
n-1.1
n2.0
o2
o2
o2
o2
n2.674255
v0
o5
v1
n1.07
o0
o2
n-1.4646
v1
n1.5261132
o44
o0
o2
n-0.7323
o5
o0
v1
n-1.042
n2.0
o2
n-0.982
o5
o0
v0
n-0.874
n2.0
o2
o2
o2
o2
n-1.148009
o5
v0
n2.0
o5
v1
n0.83
o0
o2
n-4.44
v1
n3.038736
o44
o0
o2
n-1.149
o5
o0
v0
n-0.491
n2.0
o2
n-2.22
o5
o0
v1
n-0.6844
n2.0
o2
o2
o2
o2
n-0.4273462
o5
v0
n2.0
o5
v1
n0.826
o0
o2
n-1.756
v1
n1.90526
o44
o0
o2
n-0.864
o5
o0
v0
n-0.815
n2.0
o2
n-0.878
o5
o0
v1
n-1.085
n2.0
o2
o2
o2
o2
n-0.3835361
o5
v0
n3.0
o5
v1
n1.133
o0
o2
n-2.52
v1
n2.88792
o44
o0
o2
n-1.347
o5
o0
v0
n-0.855
n2.0
o2
n-1.26
o5
o0
v1
n-1.146
n2.0
O9 0
o54
34
o2
o2
n0.34618429559999997
o5
v0
n2.0
o5
v1
n-1.22
o2
o2
n0.4966618708350001
v0
o5
v1
n-1.171
o2
o2
n-0.701150603406
v0
o5
v1
n-1.681
o2
o2
n-0.1850584524999
o5
v0
n3.0
o5
v1
n-1.313
o2
o2
o2
n0.966510972
o5
v0
n3.0
o5
v1
n1.133
o44
o0
o2
n-1.347
o5
o0
v0
n-0.855
n2.0
o2
n-1.26
o5
o0
v1
n-1.146
n2.0
o2
o2
o2
n5.097159960000001
o5
v0
n2.0
o5
v1
n0.83
o44
o0
o2
n-1.149
o5
o0
v0
n-0.491
n2.0
o2
n-2.22
o5
o0
v1
n-0.6844
n2.0
o2
o2
o2
n0.7504199272000001
o5
v0
n2.0
o5
v1
n0.826
o44
o0
o2
n-0.864
o5
o0
v0
n-0.815
n2.0
o2
n-0.878
o5
o0
v1
n-1.085
n2.0
o2
o2
o2
n0.07842840030899999
v0
o5
v1
n-0.1100000000000001
o44
o0
o2
n-2.7
o5
o0
v0
n-1.43
n2.0
o2
n-0.543
o5
o0
v1
n-1.1
n2.0
o2
o2
o2
n0.16198406990000006
o5
v0
n2.0
o5
v1
n-1.17
o44
o0
o2
n-1.149
o5
o0
v0
n-0.491
n2.0
o2
n-2.22
o5
o0
v1
n-0.6844
n2.0
o2
o2
o2
n0.20030169950000018
v0
o5
v1
n-0.9299999999999999
o44
o0
o2
n-0.7323
o5
o0
v1
n-1.042
n2.0
o2
n-0.982
o5
o0
v0
n-0.874
n2.0
o2
o2
o2
n0.06141990524880001
o5
v0
n2.0
o5
v1
n-1.174
o44
o0
o2
n-0.864
o5
o0
v0
n-0.815
n2.0
o2
n-0.878
o5
o0
v1
n-1.085
n2.0
o2
o2
o2
n-10.56913301934
o5
v0
n3.0
o5
v1
n1.9100000000000001
o44
o16
o5
v0
n2.0
o2
o2
o2
n-0.05063506494
v0
o5
v1
n1.89
o44
o0
o2
n-2.7
o5
o0
v0
n-1.43
n2.0
o2
n-0.543
o5
o0
v1
n-1.1
n2.0
o2
o2
o2
n-0.8215292115000001
v0
o5
v1
n-0.71
o44
o16
o5
v0
n2.0
o2
o2
o2
n-0.0008406440368299935
o5
v0
n7.0
o5
v1
n-0.9870000000000001
o44
o2
n-1.0
v0
o2
o2
o2
n-3.916713873
v0
o5
v1
n1.07
o44
o0
o2
n-0.7323
o5
o0
v1
n-1.042
n2.0
o2
n-0.982
o5
o0
v0
n-0.874
n2.0
o2
o2
o2
n-0.35911275400000003
o5
v0
n2.0
o5
v1
n-1.23
o44
o2
n-1.0
v0
o2
o2
o2
n-5.755968925297501
o5
v0
n2.0
o5
v1
n1.0550000000000002
o44
o16
o5
v0
n2.0
o2
o2
o2
n-0.0577946713729
o5
v0
n3.0
o5
v1
n-0.867
o44
o0
o2
n-1.347
o5
o0
v0
n-0.855
n2.0
o2
n-1.26
o5
o0
v1
n-1.146
n2.0
o2
o2
o2
o2
n1.095056931276
o5
v0
n3.0
o5
v1
n0.133
o0
v1
n-1.146
o44
o0
o2
n-1.347
o5
o0
v0
n-0.855
n2.0
o2
n-1.26
o5
o0
v1
n-1.146
n2.0
o2
o2
o2
o2
n0.6198468598672
o5
v0
n2.0
o5
v1
n-0.17400000000000004
o0
v1
n-1.085
o44
o0
o2
n-0.864
o5
o0
v0
n-0.815
n2.0
o2
n-0.878
o5
o0
v1
n-1.085
n2.0
o2
o2
o2
o2
n4.230642766800001
o5
v0
n2.0
o5
v1
n-0.17000000000000004
o0
v1
n-0.6844
o44
o0
o2
n-1.149
o5
o0
v0
n-0.491
n2.0
o2
n-2.22
o5
o0
v1
n-0.6844
n2.0
o2
o2
o2
o2
n2.86145285
v0
o5
v1
n0.07000000000000006
o0
o2
n-1.4646
v1
n1.5261132
o44
o0
o2
n-0.7323
o5
o0
v1
n-1.042
n2.0
o2
n-0.982
o5
o0
v0
n-0.874
n2.0
o2
o2
o2
o2
n0.0881217981
v0
o5
v1
n0.8899999999999999
o0
o2
n-1.086
v1
n1.1946
o44
o0
o2
n-2.7
o5
o0
v0
n-1.43
n2.0
o2
n-0.543
o5
o0
v1
n-1.1
n2.0
o2
o2
o2
o2
n-0.95284747
o5
v0
n2.0
o5
v1
n-0.17000000000000004
o0
o2
n-4.44
v1
n3.038736
o44
o0
o2
n-1.149
o5
o0
v0
n-0.491
n2.0
o2
n-2.22
o5
o0
v1
n-0.6844
n2.0
o2
o2
o2
o2
n-0.4345464013
o5
v0
n3.0
o5
v1
n0.133
o0
o2
n-2.52
v1
n2.88792
o44
o0
o2
n-1.347
o5
o0
v0
n-0.855
n2.0
o2
n-1.26
o5
o0
v1
n-1.146
n2.0
o2
o2
o2
o2
n-0.3529879612
o5
v0
n2.0
o5
v1
n-0.17400000000000004
o0
o2
n-1.756
v1
n1.90526
o44
o0
o2
n-0.864
o5
o0
v0
n-0.815
n2.0
o2
n-0.878
o5
o0
v1
n-1.085
n2.0
o2
o2
o2
o2
n-0.0957002727366
v0
o5
v1
n0.8899999999999999
o0
v1
n-1.1
o44
o0
o2
n-2.7
o5
o0
v0
n-1.43
n2.0
o2
n-0.543
o5
o0
v1
n-1.1
n2.0
o2
o2
o2
o2
n-4.19088384411
v0
o5
v1
n0.07000000000000006
o0
v1
n-1.042
o44
o0
o2
n-0.7323
o5
o0
v1
n-1.042
n2.0
o2
n-0.982
o5
o0
v0
n-0.874
n2.0
o2
o2
o2
o2
o2
n0.966510972
o5
v0
n3.0
o5
v1
n1.133
o0
v1
n-1.146
o0
o2
n-2.52
v1
n2.88792
o44
o0
o2
n-1.347
o5
o0
v0
n-0.855
n2.0
o2
n-1.26
o5
o0
v1
n-1.146
n2.0
o2
o2
o2
o2
o2
n5.097159960000001
o5
v0
n2.0
o5
v1
n0.83
o0
v1
n-0.6844
o0
o2
n-4.44
v1
n3.038736
o44
o0
o2
n-1.149
o5
o0
v0
n-0.491
n2.0
o2
n-2.22
o5
o0
v1
n-0.6844
n2.0
o2
o2
o2
o2
o2
n0.7504199272000001
o5
v0
n2.0
o5
v1
n0.826
o0
v1
n-1.085
o0
o2
n-1.756
v1
n1.90526
o44
o0
o2
n-0.864
o5
o0
v0
n-0.815
n2.0
o2
n-0.878
o5
o0
v1
n-1.085
n2.0
o2
o2
o2
o2
o2
n-0.05063506494
v0
o5
v1
n1.89
o0
v1
n-1.1
o0
o2
n-1.086
v1
n1.1946
o44
o0
o2
n-2.7
o5
o0
v0
n-1.43
n2.0
o2
n-0.543
o5
o0
v1
n-1.1
n2.0
o2
o2
o2
o2
o2
n-3.916713873
v0
o5
v1
n1.07
o0
v1
n-1.042
o0
o2
n-1.4646
v1
n1.5261132
o44
o0
o2
n-0.7323
o5
o0
v1
n-1.042
n2.0
o2
n-0.982
o5
o0
v0
n-0.874
n2.0
O10 0
o54
35
o2
n1.029589726
o5
v1
n-0.681
o2
n0.05833332
o5
v0
n3.0
o2
n-2.904455385
o5
v1
n-0.17100000000000004
o2
o2
n2.86145285
o5
v1
n0.07000000000000006
o44
o0
o2
n-0.7323
o5
o0
v1
n-1.042
n2.0
o2
n-0.982
o5
o0
v0
n-0.874
n2.0
o2
o2
n0.0881217981
o5
v1
n0.8899999999999999
o44
o0
o2
n-2.7
o5
o0
v0
n-1.43
n2.0
o2
n-0.543
o5
o0
v1
n-1.1
n2.0
o2
o2
n1.7737231869
o5
v1
n-0.31299999999999994
o5
v0
n2.0
o2
o2
n-3.14712996
v0
o5
v1
n-0.21999999999999997
o2
o2
n-2.83285935
o5
v1
n0.29000000000000004
o44
o16
o5
v0
n2.0
o2
o2
o2
n5.601916229
o5
v1
n2.055
o5
v0
n3.0
o44
o16
o5
v0
n2.0
o2
o2
o2
n0.06466492590999999
o5
v1
n0.0129999999999999
o5
v0
n7.0
o44
o2
n-1.0
v0
o2
o2
o2
n5.6657187
o5
v1
n0.29000000000000004
o5
v0
n2.0
o44
o16
o5
v0
n2.0
o2
o2
o2
n3.1227196000000004
v0
o5
v1
n-0.22999999999999998
o44
o2
n-1.0
v0
o2
o2
o2
n7.264008948
o5
v1
n2.91
o5
v0
n4.0
o44
o16
o5
v0
n2.0
o2
o2
o2
n-1.90569494
v0
o5
v1
n-0.17000000000000004
o44
o0
o2
n-1.149
o5
o0
v0
n-0.491
n2.0
o2
n-2.22
o5
o0
v1
n-0.6844
n2.0
o2
o2
o2
n-5.601916229
v0
o5
v1
n2.055
o44
o16
o5
v0
n2.0
o2
o2
o2
n-0.7059759224
v0
o5
v1
n-0.17400000000000004
o44
o0
o2
n-0.864
o5
o0
v0
n-0.815
n2.0
o2
n-0.878
o5
o0
v1
n-1.085
n2.0
o2
o2
o2
n-0.05063506494
o5
v1
n1.89
o0
v1
n-1.1
o44
o0
o2
n-2.7
o5
o0
v0
n-1.43
n2.0
o2
n-0.543
o5
o0
v1
n-1.1
n2.0
o2
o2
o2
n-1.3036392039
o5
v1
n0.133
o5
v0
n2.0
o44
o0
o2
n-1.347
o5
o0
v0
n-0.855
n2.0
o2
n-1.26
o5
o0
v1
n-1.146
n2.0
o2
o2
o2
n-3.916713873
o5
v1
n1.07
o0
v1
n-1.042
o44
o0
o2
n-0.7323
o5
o0
v1
n-1.042
n2.0
o2
n-0.982
o5
o0
v0
n-0.874
n2.0
o2
o2
o2
n-10.896013422000001
o5
v1
n2.91
o5
v0
n2.0
o44
o16
o5
v0
n2.0
o2
o2
o2
n-1.5613598000000002
o5
v1
n-0.22999999999999998
o5
v0
n2.0
o44
o2
n-1.0
v0
o2
o2
o2
n-0.4526544813699999
o5
v1
n0.0129999999999999
o5
v0
n6.0
o44
o2
n-1.0
v0
o2
o2
o2
o2
n2.899532916
o5
v1
n1.133
o5
v0
n2.0
o0
v1
n-1.146
o44
o0
o2
n-1.347
o5
o0
v0
n-0.855
n2.0
o2
n-1.26
o5
o0
v1
n-1.146
n2.0
o2
o2
o2
o2
n10.194319920000002
v0
o5
v1
n0.83
o0
v1
n-0.6844
o44
o0
o2
n-1.149
o5
o0
v0
n-0.491
n2.0
o2
n-2.22
o5
o0
v1
n-0.6844
n2.0
o2
o2
o2
o2
n2.86145285
v0
o5
v1
n0.07000000000000006
o0
o2
n-1.964
v0
n1.716536
o44
o0
o2
n-0.7323
o5
o0
v1
n-1.042
n2.0
o2
n-0.982
o5
o0
v0
n-0.874
n2.0
o2
o2
o2
o2
n1.5008398544000001
v0
o5
v1
n0.826
o0
v1
n-1.085
o44
o0
o2
n-0.864
o5
o0
v0
n-0.815
n2.0
o2
n-0.878
o5
o0
v1
n-1.085
n2.0
o2
o2
o2
o2
n0.0881217981
v0
o5
v1
n0.8899999999999999
o0
o2
n-5.4
v0
n7.722
o44
o0
o2
n-2.7
o5
o0
v0
n-1.43
n2.0
o2
n-0.543
o5
o0
v1
n-1.1
n2.0
o2
o2
o2
o2
n-0.95284747
o5
v1
n-0.17000000000000004
o5
v0
n2.0
o0
o2
n-2.298
v0
n1.128318
o44
o0
o2
n-1.149
o5
o0
v0
n-0.491
n2.0
o2
n-2.22
o5
o0
v1
n-0.6844
n2.0
o2
o2
o2
o2
n-0.4345464013
o5
v1
n0.133
o5
v0
n3.0
o0
o2
n-2.694
v0
n2.3033699999999997
o44
o0
o2
n-1.347
o5
o0
v0
n-0.855
n2.0
o2
n-1.26
o5
o0
v1
n-1.146
n2.0
o2
o2
o2
o2
n-0.3529879612
o5
v1
n-0.17400000000000004
o5
v0
n2.0
o0
o2
n-1.728
v0
n1.4083199999999998
o44
o0
o2
n-0.864
o5
o0
v0
n-0.815
n2.0
o2
n-0.878
o5
o0
v1
n-1.085
n2.0
o2
o2
o2
o2
o2
n0.966510972
o5
v1
n1.133
o5
v0
n3.0
o0
v1
n-1.146
o0
o2
n-2.694
v0
n2.3033699999999997
o44
o0
o2
n-1.347
o5
o0
v0
n-0.855
n2.0
o2
n-1.26
o5
o0
v1
n-1.146
n2.0
o2
o2
o2
o2
o2
n5.097159960000001
o5
v1
n0.83
o5
v0
n2.0
o0
v1
n-0.6844
o0
o2
n-2.298
v0
n1.128318
o44
o0
o2
n-1.149
o5
o0
v0
n-0.491
n2.0
o2
n-2.22
o5
o0
v1
n-0.6844
n2.0
o2
o2
o2
o2
o2
n0.7504199272000001
o5
v1
n0.826
o5
v0
n2.0
o0
v1
n-1.085
o0
o2
n-1.728
v0
n1.4083199999999998
o44
o0
o2
n-0.864
o5
o0
v0
n-0.815
n2.0
o2
n-0.878
o5
o0
v1
n-1.085
n2.0
o2
o2
o2
o2
o2
n-0.05063506494
v0
o5
v1
n1.89
o0
v1
n-1.1
o0
o2
n-5.4
v0
n7.722
o44
o0
o2
n-2.7
o5
o0
v0
n-1.43
n2.0
o2
n-0.543
o5
o0
v1
n-1.1
n2.0
o2
o2
o2
o2
o2
n-3.916713873
v0
o5
v1
n1.07
o0
v1
n-1.042
o0
o2
n-1.964
v0
n1.716536
o44
o0
o2
n-0.7323
o5
o0
v1
n-1.042
n2.0
o2
n-0.982
o5
o0
v0
n-0.874
n2.0
O11 0
o0
o54
5
o2
n8.215
o5
o0
o16
o3
n1
v1
n1
n0.498
o2
n-24.65
o5
o0
o16
o3
n1
v1
n1
n0.855
o2
n47.23
o5
o0
o16
o3
n1
v1
n1
n1.22
o2
n-42.44
o5
o0
o16
o3
n1
v1
n1
n1.6
o2
n15.18
o5
o0
o16
o3
n1
v1
n1
n2.04
n1.0
O12 0
o44
o54
5
o2
n-4.5483
o5
o0
o16
o3
n1
v1
n1
n0.428
o2
n-101.989
o5
o0
o16
o3
n1
v1
n1
n2.32
o2
n224.06
o5
o0
o16
o3
n1
v1
n1
n2.8
o2
n-182.79
o5
o0
o16
o3
n1
v1
n1
n3.3
o2
n-110.45
o5
o0
o16
o3
n1
v1
n1
n8.5
O13 0
n0.0
x2
0 1.00000001
1 1.0
r
b
3
3
k1
0
G0 2
0 0
1 -26.3839138
G1 1
0 0
G2 1
0 0
G3 1
1 0
G4 1
1 0
G5 2
0 0
1 0
G6 2
0 0
1 0
G7 2
0 0
1 0
G8 2
0 0
1 0
G9 2
0 0
1 0
G10 2
0 0
1 0
G11 1
1 0
G12 1
1 0
